logging:
Cal Parameter: OK
initial master model!!
initial sub model!
CPXPARAM_TimeLimit                               300
Tried aggregator 2 times.
MIP Presolve eliminated 134102 rows and 130071 columns.
MIP Presolve modified 123804 coefficients.
Aggregator did 4 substitutions.
Reduced MIP has 9916 rows, 120688 columns, and 1217142 nonzeros.
Reduced MIP has 120688 binaries, 0 generals, 0 SOSs, and 0 indicators.
Presolve time = 3.97 sec. (2988.59 ticks)
Tried aggregator 1 time.
Reduced MIP has 9916 rows, 120688 columns, and 1217142 nonzeros.
Reduced MIP has 120688 binaries, 0 generals, 0 SOSs, and 0 indicators.
Presolve time = 1.39 sec. (727.20 ticks)
Probing fixed 7 vars, tightened 0 bounds.
Probing time = 1.30 sec. (479.77 ticks)
Clique table members: 604663.
MIP emphasis: balance optimality and feasibility.
MIP search method: dynamic search.
Parallel mode: deterministic, using up to 4 threads.
Root relaxation solution time = 4.42 sec. (2964.82 ticks)

        Nodes                                         Cuts/
   Node  Left     Objective  IInf  Best Integer    Best Bound    ItCnt     Gap

*     0+    0                            2.0000   119273.0000              --- 
      0     0       31.7538   112        2.0000       31.7538     6075     --- 
*     0+    0                            6.0000       31.7538           429.23%
      0     0       31.1039   156        6.0000      Fract: 2     8949  418.40%
      0     0       31.1039   157        6.0000   Flowcuts: 1     8950  418.40%
      0     0       31.1039   158        6.0000   Flowcuts: 1     8951  418.40%
Heuristic still looking.
      0     2       31.1039   158        6.0000       31.1039     8951  418.40%
Elapsed time = 58.38 sec. (39164.98 ticks, tree = 0.02 MB, solutions = 2)
      1     3       31.0613   197        6.0000       31.1038     9725  418.40%
      2     3       29.6147   122        6.0000       31.1037    12618  418.40%
      3     2        cutoff              6.0000       31.1037    11917  418.40%
      4     4       31.0194   182        6.0000       31.1037    10515  418.40%
      5     5       30.9805   178        6.0000       31.0193    16987  416.99%
      6     3        cutoff              6.0000       31.0193    16622  416.99%
      7     5       29.6056   122        6.0000       31.0193    13423  416.99%
      8     6       30.9743   151        6.0000       31.0193    17046  416.99%
      9     5       30.7742   145        6.0000       31.0193    17848  416.99%
     10     6       29.3729   144        6.0000       31.0193    20861  416.99%
Elapsed time = 91.44 sec. (58073.73 ticks, tree = 0.12 MB, solutions = 2)
     11     8       30.7620   171        6.0000       30.9805    22545  416.34%
     15    11       29.3500   142        6.0000       30.9805    28188  416.34%
     16    11       30.6089   141        6.0000       30.9805    24772  416.34%
     17    12       29.3239   139        6.0000       30.9805    28898  416.34%
     18    10       30.3032   170        6.0000       30.9805    24916  416.34%
     19    13       28.7816   127        6.0000       30.9805    30608  416.34%
     20    12       30.5360   129        6.0000       30.9805    26794  416.34%
     22    14       30.2044   167        6.0000       30.9805    31391  416.34%
     23    13    infeasible              6.0000       30.9805    33298  416.34%
     24    14        cutoff              6.0000       30.9805    40763  416.34%
Elapsed time = 126.03 sec. (81985.48 ticks, tree = 0.76 MB, solutions = 2)
     25    17       30.3577   145        6.0000       30.9805    35776  416.34%
     26    14        cutoff              6.0000       30.9805    45177  416.34%
     27    13        cutoff              6.0000       30.9805    45015  416.34%
     28    16       27.6618   111        6.0000       30.9805    42314  416.34%
     29    17       29.3681   124        6.0000       30.9805    43182  416.34%
     31    13        cutoff              6.0000       30.9805    49922  416.34%
     33    16       27.5962   111        6.0000       30.9805    48250  416.34%
     35    15        cutoff              6.0000       30.9805    55487  416.34%
     36    16       29.8695   134        6.0000       30.9805    55898  416.34%
     37    17       29.8156   143        6.0000       30.9805    56239  416.34%
Elapsed time = 160.06 sec. (97454.09 ticks, tree = 1.09 MB, solutions = 2)
     40    17       29.1371   145        6.0000       30.9805    51913  416.34%
     43    16        cutoff              6.0000       30.9805    62349  416.34%
     49    18        cutoff              6.0000       30.9805    64909  416.34%
     54    21       27.4703   136        6.0000       30.9805    65624  416.34%
     58    22       27.3489   130        6.0000       30.9805    66674  416.34%
     59    16        cutoff              6.0000       30.9805    64408  416.34%
     66    20       29.6384   113        6.0000       30.9805    69629  416.34%
     72    23        cutoff              6.0000       30.9805    70026  416.34%
     77    19        cutoff              6.0000       30.9805    72238  416.34%
     81    27       27.1167    96        6.0000       30.9805    70968  416.34%
Elapsed time = 189.70 sec. (109935.50 ticks, tree = 1.47 MB, solutions = 2)
     88    20       29.5928   133        6.0000       30.9805    72272  416.34%
     92    27        cutoff              6.0000       30.9805    79315  416.34%
    102    30       27.0168    96        6.0000       30.9805    80425  416.34%
    112    30       28.4155   124        6.0000       30.9805    82988  416.34%
    122    34       26.9922   111        6.0000       30.9805    83382  416.34%
    130    38       26.9803   101        6.0000       30.9805    95349  416.34%
    139    33       28.3950   103        6.0000       30.9805    85984  416.34%
    145    31        cutoff              6.0000       30.9805    89598  416.34%
    147    40       29.6394   171        6.0000       30.9805    96399  416.34%
    151    41       29.4550   185        6.0000       30.9805    97062  416.34%
Elapsed time = 221.25 sec. (122678.14 ticks, tree = 2.55 MB, solutions = 2)
    152    42       29.3922   210        6.0000       30.9805    97385  416.34%
    156    39        cutoff              6.0000       30.9805    98280  416.34%
    164    34        cutoff              6.0000       30.9805    94332  416.34%
    172    43        cutoff              6.0000       30.9805   102409  416.34%
    183    45       26.9002   116        6.0000       30.9805   103905  416.34%
    195    48       29.1413   136        6.0000       30.9805   109228  416.34%
    214    51        cutoff              6.0000       30.9805   112313  416.34%
    232    54        cutoff              6.0000       30.9805   115613  416.34%
    252    48       26.8351   111        6.0000       30.9805   109106  416.34%
    274    61       27.7052   126        6.0000       30.9805   121996  416.34%
Elapsed time = 244.06 sec. (133058.18 ticks, tree = 4.71 MB, solutions = 2)
    297    51       28.2581   107        6.0000       30.9805   116351  416.34%
    321    95        cutoff              6.0000       30.9805   147079  416.34%
    344   101       26.6432   139        6.0000       30.9805   150274  416.34%
    363   102       26.5091   143        6.0000       30.9805   154461  416.34%
    387   114       26.4449   141        6.0000       30.9805   157452  416.34%
    409    75       26.6826   136        6.0000       30.9805   131900  416.34%
    429    76       26.6684   125        6.0000       30.9805   133511  416.34%
    455    82       26.5537   124        6.0000       30.9805   134297  416.34%
    477   136       26.3087   144        6.0000       30.9805   171017  416.34%
    496   143       26.2083   151        6.0000       30.9805   174446  416.34%
Elapsed time = 267.98 sec. (142942.87 ticks, tree = 12.94 MB, solutions = 2)
    517   145        cutoff              6.0000       30.9805   178742  416.34%
    525   104        cutoff              6.0000       30.9805   169028  416.34%
    546   169        cutoff              6.0000       30.9805   204245  416.34%
    565   106       26.2366   130        6.0000       30.9805   172110  416.34%
    583   179        cutoff              6.0000       30.9805   211941  416.34%
    608   165       27.7295   154        6.0000       30.9805   205906  416.34%
    622   109       26.2021   129        6.0000       30.9805   175045  416.34%
    642   109       26.1832   132        6.0000       30.9805   176597  416.34%
    672   112       26.1683   130        6.0000       30.9805   178220  416.34%
    701   113        cutoff              6.0000       30.9805   180064  416.34%
Elapsed time = 289.30 sec. (152913.00 ticks, tree = 8.39 MB, solutions = 2)
    728   232       25.3944   145        6.0000       30.9805   247049  416.34%
    752   186        cutoff              6.0000       30.9805   221481  416.34%
    775   244       25.3165   131        6.0000       30.9805   253496  416.34%
    800   245        cutoff              6.0000       30.9805   256973  416.34%
    821   182       28.1465   160        6.0000       30.9805   210737  416.34%

Cover cuts applied:  8
Implied bound cuts applied:  2
Flow cuts applied:  2
Gomory fractional cuts applied:  2

Root node processing (before b&c):
  Real time             =   57.55 sec. (38612.50 ticks)
Parallel b&c, 4 threads:
  Real time             =  242.64 sec. (120481.53 ticks)
  Sync time (average)   =   23.08 sec.
  Wait time (average)   =    0.00 sec.
                          ------------
Total (root+branch&cut) =  300.19 sec. (159094.03 ticks)
lastScore is 6.0
x 145,152,0  =  1
y 152,1180,0  =  1
x 197,204,1  =  1
f 204,1  =  1
x 1180,1187,1  =  1
x 1187,197,1  =  1
x 196,203,0  =  1
f 203,0  =  1
